100 8
232 904
254 928
960 539
399 690
335 861
386 691
227 642
424 667
678 721
497 198
835 164
244 686
361 352
206 760
744 482
372 588
527 813
377 668
863 589
193 795
708 631
215 721
414 298
575 752
149 848
296 805
314 766
369 793
268 909
396 844
402 567
431 321
217 327
496 121
325 177
294 806
433 752
277 371
197 725
141 910
902 700
554 60
248 324
777 862
583 667
339 884
288 328
277 533
775 273
606 82
280 813
160 831
335 780
331 516
728 482
600 250
391 263
253 791
144 622
137 414
493 235
388 689
400 897
322 182
977 699
240 726
626 507
433 791
294 828
376 683
918 663
824 628
679 511
705 704
345 889
279 491
845 504
341 825
429 356
141 764
799 150
811 691
756 715
372 652
574 201
560 756
134 782
602 615
565 754
330 445
382 208
411 548
462 685
882 533
841 142
348 486
452 209
357 712
766 288
628 414
